20	5
0	10	9	7	2	10	4	5	8	1	6	3
1	2	17	13
2	3	13	11	12
3	3	16	19	12
4	2	14	11
5	3	13	11	12
6	4	11	12	15	16
7	3	12	11	14
8	4	16	12	11	19
9	3	20	18	17
10	4	17	19	20	18
11	3	20	17	18
12	2	18	17
13	2	16	15
14	1	13
15	1	18
16	1	21
17	1	21
18	1	21
19	1	21
20	1	21
21	0
0	0	0	0	0	0	0
1	6	2	2	4	2	4
2	2	2	5	5	3	5
3	4	0	3	0	0	1
4	6	2	2	2	2	5
5	1	3	3	3	2	4
6	8	5	1	5	5	5
7	3	0	0	5	2	2
8	8	5	4	3	4	3
9	6	0	0	0	3	5
10	7	1	3	4	3	3
11	9	0	4	5	5	3
12	7	4	2	1	5	5
13	1	1	0	0	0	5
14	6	1	0	0	1	2
15	7	2	2	3	2	1
16	5	0	2	4	0	1
17	6	0	4	3	2	0
18	4	0	0	0	5	3
19	10	0	0	1	1	5
20	1	1	5	0	2	0
21	0	0	0	0	0	0
12	13	16	13	17
